50
6684

322 230
53 481
119 556
447 364
253 768
321 366
561 629
988 901
324 683
273 386
592 664
388 177
191 902
656 405
450 494
406 618
544 796
154 568
418 970
406 24
271 802
997 373
57 470
505 892
33 455
649 303
658 611
916 613
510 686
965 988
30 394
848 744
51 564
565 256
932 432
433 650
818 737
290 6
777 261
579 393
971 441
462 465
13 771
800 745
591 3
162 39
975 868
839 153
179 636
768 464
